p cnf 256 866
c p weight -101 1 0
c p weight 101 -1 0
c p weight 105 6.12323399573676603586882014729198302312846062338790031898128063403419218957424163818359375E-17 0
c p weight -105 1 0
c p weight 106 1 0
c p weight -106 1 0
c p weight -103 1 0
c p weight 103 -1 0
c p weight -107 1 0
c p weight 107 -1 0
c p weight -109 1 0
c p weight 109 -1 0
c p weight -112 1 0
c p weight 112 -1 0
c p weight -115 1 0
c p weight 115 -1 0
c p weight -118 1 0
c p weight 118 -1 0
c p weight -121 1 0
c p weight 121 -1 0
c p weight -124 1 0
c p weight 124 -1 0
c p weight -127 1 0
c p weight 127 -1 0
c p weight -130 1 0
c p weight 130 -1 0
c p weight -133 1 0
c p weight 133 -1 0
c p weight -136 1 0
c p weight 136 -1 0
c p weight -139 1 0
c p weight 139 -1 0
c p weight -142 1 0
c p weight 142 -1 0
c p weight -145 1 0
c p weight 145 -1 0
c p weight -148 1 0
c p weight 148 -1 0
c p weight -151 1 0
c p weight 151 -1 0
c p weight -154 1 0
c p weight 154 -1 0
c p weight -157 1 0
c p weight 157 -1 0
c p weight -160 1 0
c p weight 160 -1 0
c p weight -163 1 0
c p weight 163 -1 0
c p weight -166 1 0
c p weight 166 -1 0
c p weight -169 1 0
c p weight 169 -1 0
c p weight -172 1 0
c p weight 172 -1 0
c p weight -175 1 0
c p weight 175 -1 0
c p weight -178 1 0
c p weight 178 -1 0
c p weight -181 1 0
c p weight 181 -1 0
c p weight -184 1 0
c p weight 184 -1 0
c p weight -187 1 0
c p weight 187 -1 0
c p weight -190 1 0
c p weight 190 -1 0
c p weight -193 1 0
c p weight 193 -1 0
c p weight -196 1 0
c p weight 196 -1 0
c p weight -199 1 0
c p weight 199 -1 0
c p weight -202 1 0
c p weight 202 -1 0
c p weight -205 1 0
c p weight 205 -1 0
c p weight -208 1 0
c p weight 208 -1 0
c p weight -211 1 0
c p weight 211 -1 0
c p weight -214 1 0
c p weight 214 -1 0
c p weight -217 1 0
c p weight 217 -1 0
c p weight -220 1 0
c p weight 220 -1 0
c p weight -223 1 0
c p weight 223 -1 0
c p weight -226 1 0
c p weight 226 -1 0
c p weight -229 1 0
c p weight 229 -1 0
c p weight -232 1 0
c p weight 232 -1 0
c p weight -235 1 0
c p weight 235 -1 0
c p weight -238 1 0
c p weight 238 -1 0
c p weight -241 1 0
c p weight 241 -1 0
c p weight -244 1 0
c p weight 244 -1 0
c p weight -247 1 0
c p weight 247 -1 0
c p weight -250 1 0
c p weight 250 -1 0
c p weight -253 1 0
c p weight 253 -1 0
c p weight 256 0.5 0
c p weight -256 1 0
256 0
-99 0
-97 0
-95 0
-93 0
-91 0
-89 0
-87 0
-85 0
-83 0
-81 0
-79 0
-77 0
-75 0
-73 0
-71 0
-69 0
-67 0
-65 0
-63 0
-61 0
-59 0
-57 0
-55 0
-53 0
-51 0
-49 0
-47 0
-45 0
-43 0
-41 0
-39 0
-37 0
-35 0
-33 0
-31 0
-29 0
-27 0
-25 0
-23 0
-21 0
-19 0
-17 0
-15 0
-13 0
-11 0
-9 0
-7 0
-5 0
-3 0
-1 0
-101 99 0
-101 100 0
101 -99 -100 0
102 99 -100 0
102 -99 100 0
-102 99 100 0
-102 -99 -100 0
-103 104 0
-103 102 0
-103 -99 0
103 -104 99 -102 0
104 -99 102 0
-104 99 102 0
-105 102 0
104 -105 -99 0
-104 -105 99 0
104 105 99 -102 0
-104 105 -99 -102 0
-106 102 0
104 -106 99 0
-104 -106 -99 0
104 106 -99 -102 0
-104 106 99 -102 0
-107 104 0
-107 102 0
107 -104 -102 0
108 104 -102 0
108 -104 102 0
-108 104 102 0
-108 -104 -102 0
-109 104 0
-109 98 0
-109 97 -108 0
-109 -97 108 0
109 -104 97 108 -98 0
109 -104 -97 -108 -98 0
111 104 -97 0
111 -104 97 0
-111 104 97 0
-111 -104 -97 0
110 108 -98 0
110 -108 98 0
-110 108 98 0
-110 -108 -98 0
-112 111 0
-112 96 0
-112 95 -98 0
-112 -95 98 0
112 -111 95 98 -96 0
112 -111 -95 -98 -96 0
114 111 -95 0
114 -111 95 0
-114 111 95 0
-114 -111 -95 0
113 98 -96 0
113 -98 96 0
-113 98 96 0
-113 -98 -96 0
-115 114 0
-115 94 0
-115 93 -96 0
-115 -93 96 0
115 -114 93 96 -94 0
115 -114 -93 -96 -94 0
117 114 -93 0
117 -114 93 0
-117 114 93 0
-117 -114 -93 0
116 96 -94 0
116 -96 94 0
-116 96 94 0
-116 -96 -94 0
-118 117 0
-118 92 0
-118 91 -94 0
-118 -91 94 0
118 -117 91 94 -92 0
118 -117 -91 -94 -92 0
120 117 -91 0
120 -117 91 0
-120 117 91 0
-120 -117 -91 0
119 94 -92 0
119 -94 92 0
-119 94 92 0
-119 -94 -92 0
-121 120 0
-121 90 0
-121 89 -92 0
-121 -89 92 0
121 -120 89 92 -90 0
121 -120 -89 -92 -90 0
123 120 -89 0
123 -120 89 0
-123 120 89 0
-123 -120 -89 0
122 92 -90 0
122 -92 90 0
-122 92 90 0
-122 -92 -90 0
-124 123 0
-124 88 0
-124 87 -90 0
-124 -87 90 0
124 -123 87 90 -88 0
124 -123 -87 -90 -88 0
126 123 -87 0
126 -123 87 0
-126 123 87 0
-126 -123 -87 0
125 90 -88 0
125 -90 88 0
-125 90 88 0
-125 -90 -88 0
-127 126 0
-127 86 0
-127 85 -88 0
-127 -85 88 0
127 -126 85 88 -86 0
127 -126 -85 -88 -86 0
129 126 -85 0
129 -126 85 0
-129 126 85 0
-129 -126 -85 0
128 88 -86 0
128 -88 86 0
-128 88 86 0
-128 -88 -86 0
-130 129 0
-130 84 0
-130 83 -86 0
-130 -83 86 0
130 -129 83 86 -84 0
130 -129 -83 -86 -84 0
132 129 -83 0
132 -129 83 0
-132 129 83 0
-132 -129 -83 0
131 86 -84 0
131 -86 84 0
-131 86 84 0
-131 -86 -84 0
-133 132 0
-133 82 0
-133 81 -84 0
-133 -81 84 0
133 -132 81 84 -82 0
133 -132 -81 -84 -82 0
135 132 -81 0
135 -132 81 0
-135 132 81 0
-135 -132 -81 0
134 84 -82 0
134 -84 82 0
-134 84 82 0
-134 -84 -82 0
-136 135 0
-136 80 0
-136 79 -82 0
-136 -79 82 0
136 -135 79 82 -80 0
136 -135 -79 -82 -80 0
138 135 -79 0
138 -135 79 0
-138 135 79 0
-138 -135 -79 0
137 82 -80 0
137 -82 80 0
-137 82 80 0
-137 -82 -80 0
-139 138 0
-139 78 0
-139 77 -80 0
-139 -77 80 0
139 -138 77 80 -78 0
139 -138 -77 -80 -78 0
141 138 -77 0
141 -138 77 0
-141 138 77 0
-141 -138 -77 0
140 80 -78 0
140 -80 78 0
-140 80 78 0
-140 -80 -78 0
-142 141 0
-142 76 0
-142 75 -78 0
-142 -75 78 0
142 -141 75 78 -76 0
142 -141 -75 -78 -76 0
144 141 -75 0
144 -141 75 0
-144 141 75 0
-144 -141 -75 0
143 78 -76 0
143 -78 76 0
-143 78 76 0
-143 -78 -76 0
-145 144 0
-145 74 0
-145 73 -76 0
-145 -73 76 0
145 -144 73 76 -74 0
145 -144 -73 -76 -74 0
147 144 -73 0
147 -144 73 0
-147 144 73 0
-147 -144 -73 0
146 76 -74 0
146 -76 74 0
-146 76 74 0
-146 -76 -74 0
-148 147 0
-148 72 0
-148 71 -74 0
-148 -71 74 0
148 -147 71 74 -72 0
148 -147 -71 -74 -72 0
150 147 -71 0
150 -147 71 0
-150 147 71 0
-150 -147 -71 0
149 74 -72 0
149 -74 72 0
-149 74 72 0
-149 -74 -72 0
-151 150 0
-151 70 0
-151 69 -72 0
-151 -69 72 0
151 -150 69 72 -70 0
151 -150 -69 -72 -70 0
153 150 -69 0
153 -150 69 0
-153 150 69 0
-153 -150 -69 0
152 72 -70 0
152 -72 70 0
-152 72 70 0
-152 -72 -70 0
-154 153 0
-154 68 0
-154 67 -70 0
-154 -67 70 0
154 -153 67 70 -68 0
154 -153 -67 -70 -68 0
156 153 -67 0
156 -153 67 0
-156 153 67 0
-156 -153 -67 0
155 70 -68 0
155 -70 68 0
-155 70 68 0
-155 -70 -68 0
-157 156 0
-157 66 0
-157 65 -68 0
-157 -65 68 0
157 -156 65 68 -66 0
157 -156 -65 -68 -66 0
159 156 -65 0
159 -156 65 0
-159 156 65 0
-159 -156 -65 0
158 68 -66 0
158 -68 66 0
-158 68 66 0
-158 -68 -66 0
-160 159 0
-160 64 0
-160 63 -66 0
-160 -63 66 0
160 -159 63 66 -64 0
160 -159 -63 -66 -64 0
162 159 -63 0
162 -159 63 0
-162 159 63 0
-162 -159 -63 0
161 66 -64 0
161 -66 64 0
-161 66 64 0
-161 -66 -64 0
-163 162 0
-163 62 0
-163 61 -64 0
-163 -61 64 0
163 -162 61 64 -62 0
163 -162 -61 -64 -62 0
165 162 -61 0
165 -162 61 0
-165 162 61 0
-165 -162 -61 0
164 64 -62 0
164 -64 62 0
-164 64 62 0
-164 -64 -62 0
-166 165 0
-166 60 0
-166 59 -62 0
-166 -59 62 0
166 -165 59 62 -60 0
166 -165 -59 -62 -60 0
168 165 -59 0
168 -165 59 0
-168 165 59 0
-168 -165 -59 0
167 62 -60 0
167 -62 60 0
-167 62 60 0
-167 -62 -60 0
-169 168 0
-169 58 0
-169 57 -60 0
-169 -57 60 0
169 -168 57 60 -58 0
169 -168 -57 -60 -58 0
171 168 -57 0
171 -168 57 0
-171 168 57 0
-171 -168 -57 0
170 60 -58 0
170 -60 58 0
-170 60 58 0
-170 -60 -58 0
-172 171 0
-172 56 0
-172 55 -58 0
-172 -55 58 0
172 -171 55 58 -56 0
172 -171 -55 -58 -56 0
174 171 -55 0
174 -171 55 0
-174 171 55 0
-174 -171 -55 0
173 58 -56 0
173 -58 56 0
-173 58 56 0
-173 -58 -56 0
-175 174 0
-175 54 0
-175 53 -56 0
-175 -53 56 0
175 -174 53 56 -54 0
175 -174 -53 -56 -54 0
177 174 -53 0
177 -174 53 0
-177 174 53 0
-177 -174 -53 0
176 56 -54 0
176 -56 54 0
-176 56 54 0
-176 -56 -54 0
-178 177 0
-178 52 0
-178 51 -54 0
-178 -51 54 0
178 -177 51 54 -52 0
178 -177 -51 -54 -52 0
180 177 -51 0
180 -177 51 0
-180 177 51 0
-180 -177 -51 0
179 54 -52 0
179 -54 52 0
-179 54 52 0
-179 -54 -52 0
-181 180 0
-181 50 0
-181 49 -52 0
-181 -49 52 0
181 -180 49 52 -50 0
181 -180 -49 -52 -50 0
183 180 -49 0
183 -180 49 0
-183 180 49 0
-183 -180 -49 0
182 52 -50 0
182 -52 50 0
-182 52 50 0
-182 -52 -50 0
-184 183 0
-184 48 0
-184 47 -50 0
-184 -47 50 0
184 -183 47 50 -48 0
184 -183 -47 -50 -48 0
186 183 -47 0
186 -183 47 0
-186 183 47 0
-186 -183 -47 0
185 50 -48 0
185 -50 48 0
-185 50 48 0
-185 -50 -48 0
-187 186 0
-187 46 0
-187 45 -48 0
-187 -45 48 0
187 -186 45 48 -46 0
187 -186 -45 -48 -46 0
189 186 -45 0
189 -186 45 0
-189 186 45 0
-189 -186 -45 0
188 48 -46 0
188 -48 46 0
-188 48 46 0
-188 -48 -46 0
-190 189 0
-190 44 0
-190 43 -46 0
-190 -43 46 0
190 -189 43 46 -44 0
190 -189 -43 -46 -44 0
192 189 -43 0
192 -189 43 0
-192 189 43 0
-192 -189 -43 0
191 46 -44 0
191 -46 44 0
-191 46 44 0
-191 -46 -44 0
-193 192 0
-193 42 0
-193 41 -44 0
-193 -41 44 0
193 -192 41 44 -42 0
193 -192 -41 -44 -42 0
195 192 -41 0
195 -192 41 0
-195 192 41 0
-195 -192 -41 0
194 44 -42 0
194 -44 42 0
-194 44 42 0
-194 -44 -42 0
-196 195 0
-196 40 0
-196 39 -42 0
-196 -39 42 0
196 -195 39 42 -40 0
196 -195 -39 -42 -40 0
198 195 -39 0
198 -195 39 0
-198 195 39 0
-198 -195 -39 0
197 42 -40 0
197 -42 40 0
-197 42 40 0
-197 -42 -40 0
-199 198 0
-199 38 0
-199 37 -40 0
-199 -37 40 0
199 -198 37 40 -38 0
199 -198 -37 -40 -38 0
201 198 -37 0
201 -198 37 0
-201 198 37 0
-201 -198 -37 0
200 40 -38 0
200 -40 38 0
-200 40 38 0
-200 -40 -38 0
-202 201 0
-202 36 0
-202 35 -38 0
-202 -35 38 0
202 -201 35 38 -36 0
202 -201 -35 -38 -36 0
204 201 -35 0
204 -201 35 0
-204 201 35 0
-204 -201 -35 0
203 38 -36 0
203 -38 36 0
-203 38 36 0
-203 -38 -36 0
-205 204 0
-205 34 0
-205 33 -36 0
-205 -33 36 0
205 -204 33 36 -34 0
205 -204 -33 -36 -34 0
207 204 -33 0
207 -204 33 0
-207 204 33 0
-207 -204 -33 0
206 36 -34 0
206 -36 34 0
-206 36 34 0
-206 -36 -34 0
-208 207 0
-208 32 0
-208 31 -34 0
-208 -31 34 0
208 -207 31 34 -32 0
208 -207 -31 -34 -32 0
210 207 -31 0
210 -207 31 0
-210 207 31 0
-210 -207 -31 0
209 34 -32 0
209 -34 32 0
-209 34 32 0
-209 -34 -32 0
-211 210 0
-211 30 0
-211 29 -32 0
-211 -29 32 0
211 -210 29 32 -30 0
211 -210 -29 -32 -30 0
213 210 -29 0
213 -210 29 0
-213 210 29 0
-213 -210 -29 0
212 32 -30 0
212 -32 30 0
-212 32 30 0
-212 -32 -30 0
-214 213 0
-214 28 0
-214 27 -30 0
-214 -27 30 0
214 -213 27 30 -28 0
214 -213 -27 -30 -28 0
216 213 -27 0
216 -213 27 0
-216 213 27 0
-216 -213 -27 0
215 30 -28 0
215 -30 28 0
-215 30 28 0
-215 -30 -28 0
-217 216 0
-217 26 0
-217 25 -28 0
-217 -25 28 0
217 -216 25 28 -26 0
217 -216 -25 -28 -26 0
219 216 -25 0
219 -216 25 0
-219 216 25 0
-219 -216 -25 0
218 28 -26 0
218 -28 26 0
-218 28 26 0
-218 -28 -26 0
-220 219 0
-220 24 0
-220 23 -26 0
-220 -23 26 0
220 -219 23 26 -24 0
220 -219 -23 -26 -24 0
222 219 -23 0
222 -219 23 0
-222 219 23 0
-222 -219 -23 0
221 26 -24 0
221 -26 24 0
-221 26 24 0
-221 -26 -24 0
-223 222 0
-223 22 0
-223 21 -24 0
-223 -21 24 0
223 -222 21 24 -22 0
223 -222 -21 -24 -22 0
225 222 -21 0
225 -222 21 0
-225 222 21 0
-225 -222 -21 0
224 24 -22 0
224 -24 22 0
-224 24 22 0
-224 -24 -22 0
-226 225 0
-226 20 0
-226 19 -22 0
-226 -19 22 0
226 -225 19 22 -20 0
226 -225 -19 -22 -20 0
228 225 -19 0
228 -225 19 0
-228 225 19 0
-228 -225 -19 0
227 22 -20 0
227 -22 20 0
-227 22 20 0
-227 -22 -20 0
-229 228 0
-229 18 0
-229 17 -20 0
-229 -17 20 0
229 -228 17 20 -18 0
229 -228 -17 -20 -18 0
231 228 -17 0
231 -228 17 0
-231 228 17 0
-231 -228 -17 0
230 20 -18 0
230 -20 18 0
-230 20 18 0
-230 -20 -18 0
-232 231 0
-232 16 0
-232 15 -18 0
-232 -15 18 0
232 -231 15 18 -16 0
232 -231 -15 -18 -16 0
234 231 -15 0
234 -231 15 0
-234 231 15 0
-234 -231 -15 0
233 18 -16 0
233 -18 16 0
-233 18 16 0
-233 -18 -16 0
-235 234 0
-235 14 0
-235 13 -16 0
-235 -13 16 0
235 -234 13 16 -14 0
235 -234 -13 -16 -14 0
237 234 -13 0
237 -234 13 0
-237 234 13 0
-237 -234 -13 0
236 16 -14 0
236 -16 14 0
-236 16 14 0
-236 -16 -14 0
-238 237 0
-238 12 0
-238 11 -14 0
-238 -11 14 0
238 -237 11 14 -12 0
238 -237 -11 -14 -12 0
240 237 -11 0
240 -237 11 0
-240 237 11 0
-240 -237 -11 0
239 14 -12 0
239 -14 12 0
-239 14 12 0
-239 -14 -12 0
-241 240 0
-241 10 0
-241 9 -12 0
-241 -9 12 0
241 -240 9 12 -10 0
241 -240 -9 -12 -10 0
243 240 -9 0
243 -240 9 0
-243 240 9 0
-243 -240 -9 0
242 12 -10 0
242 -12 10 0
-242 12 10 0
-242 -12 -10 0
-244 243 0
-244 8 0
-244 7 -10 0
-244 -7 10 0
244 -243 7 10 -8 0
244 -243 -7 -10 -8 0
246 243 -7 0
246 -243 7 0
-246 243 7 0
-246 -243 -7 0
245 10 -8 0
245 -10 8 0
-245 10 8 0
-245 -10 -8 0
-247 246 0
-247 6 0
-247 5 -8 0
-247 -5 8 0
247 -246 5 8 -6 0
247 -246 -5 -8 -6 0
249 246 -5 0
249 -246 5 0
-249 246 5 0
-249 -246 -5 0
248 8 -6 0
248 -8 6 0
-248 8 6 0
-248 -8 -6 0
-250 249 0
-250 4 0
-250 3 -6 0
-250 -3 6 0
250 -249 3 6 -4 0
250 -249 -3 -6 -4 0
252 249 -3 0
252 -249 3 0
-252 249 3 0
-252 -249 -3 0
251 6 -4 0
251 -6 4 0
-251 6 4 0
-251 -6 -4 0
-253 252 0
-253 2 0
-253 1 -4 0
-253 -1 4 0
253 -252 1 4 -2 0
253 -252 -1 -4 -2 0
255 252 -1 0
255 -252 1 0
-255 252 1 0
-255 -252 -1 0
254 4 -2 0
254 -4 2 0
-254 4 2 0
-254 -4 -2 0
-255 0
-252 0
-254 0
-249 0
-251 0
-246 0
-248 0
-243 0
-245 0
-240 0
-242 0
-237 0
-239 0
-234 0
-236 0
-231 0
-233 0
-228 0
-230 0
-225 0
-227 0
-222 0
-224 0
-219 0
-221 0
-216 0
-218 0
-213 0
-215 0
-210 0
-212 0
-207 0
-209 0
-204 0
-206 0
-201 0
-203 0
-198 0
-200 0
-195 0
-197 0
-192 0
-194 0
-189 0
-191 0
-186 0
-188 0
-183 0
-185 0
-180 0
-182 0
-177 0
-179 0
-174 0
-176 0
-171 0
-173 0
-168 0
-170 0
-165 0
-167 0
-162 0
-164 0
-159 0
-161 0
-156 0
-158 0
-153 0
-155 0
-150 0
-152 0
-147 0
-149 0
-144 0
-146 0
-141 0
-143 0
-138 0
-140 0
-135 0
-137 0
-132 0
-134 0
-129 0
-131 0
-126 0
-128 0
-123 0
-125 0
-120 0
-122 0
-117 0
-119 0
-114 0
-116 0
-111 0
-113 0
-104 0
-110 0
